NAME: random problem
TYPE: MTSP
COMMENT: MTSP problem for MRS UAV summer school
DIMENSION: 20
NUMBER_OF_ROBOTS: 2
START_TARGET_INDEXES: 1, 2
NEIGHBORHOOD_RADIUS: 2
EDGE_WEIGHT_TYPE: EUC_2D
NODE_COORD_SECTION
1 15.0 -21.0
2 -5.0 -25.0
3 -15.4 -15.2
4 13.7 -15.7
5 36.3 -12.1
6 -9.0 12.7
7 0.3 -13.3
8 14.0 -4.7
9 35.4 -0.7
10 13.2 -24.4
11 -15.6 -29.2
12 -1.5 -19.5
13 -31.4 -6.6
14 -20.6 -5.2
15 11.6 -17.2
16 25.4 18.9
17 16.0 -23.0
18 36.1 -12.5
19 28.2 -17.4
20 28.5 6.6
EOF
